p cnf 7230 17
-2958 -2960 3509 0
2960 -3509 0
-2290 -3166 -3514 0
-2286 -2982 -3512 0
-2962 -3294 -3510 0
2290 -3515 0
2286 -3513 0
2962 -3511 0
3514 3515 0
3512 3513 0
3510 3511 0
3166 -3515 0
2982 -3513 0
3294 -3511 0
2296 -3517 0
3508 3509 0
-3508 -3509 0
